c Result of efficient AIG-to-CNF conversion using package CNF
p cnf 367 1457
-2 297 298 0
-2 3 -298 0
2 -3 -298 0
2 -297 298 0
-3 265 283 0
-3 4 -283 0
3 -4 -283 0
3 -265 283 0
-4 217 250 0
-4 5 -250 0
4 -5 -250 0
4 -217 250 0
-5 154 203 0
-5 6 -203 0
5 -6 -203 0
5 -154 203 0
-6 75 140 0
-6 7 -140 0
6 -7 -140 0
6 -75 140 0
-7 8 64 0
-7 363 -64 0
7 -363 -64 0
7 -8 64 0
-8 9 -53 0
-8 359 53 0
8 -359 53 0
8 -9 -53 0
-9 10 -42 0
-9 355 42 0
9 -355 42 0
9 -10 -42 0
-10 11 -31 0
-10 351 31 0
10 -351 31 0
10 -11 -31 0
-11 12 -20 0
-11 347 20 0
11 -347 20 0
11 -12 -20 0
-12 339 -13 0
-12 343 13 0
12 -343 13 0
12 -339 -13 0
-13 14 19 0
-13 340 -344 14 0
-13 -340 344 14 0
13 -14 0
13 -340 -344 -19 0
13 340 344 -19 0
-14 342 -346 16 0
-14 342 15 16 0
-14 -346 15 16 0
14 -342 -15 0
14 -342 346 0
14 -16 0
14 346 -15 0
15 -341 345 0
-15 341 0
-15 -345 0
16 -340 344 17 18 0
-16 -18 0
-16 340 0
-16 -17 0
-16 -344 0
-17 -342 -346 0
-17 342 346 0
17 342 -346 0
17 -342 346 0
-18 -341 -345 0
-18 341 345 0
18 341 -345 0
18 -341 345 0
19 -339 343 17 18 0
-19 -18 0
-19 339 0
-19 -17 0
-19 -343 0
-20 22 30 0
-20 -348 21 22 0
-20 348 -21 22 0
20 -22 0
20 348 21 -30 0
20 -348 -21 -30 0
-21 340 -13 0
-21 344 13 0
21 -344 13 0
21 -340 -13 0
-22 -350 23 26 0
-22 -350 24 26 0
-22 23 24 26 0
22 -23 -24 0
22 350 -23 0
22 -26 0
22 350 -24 0
-23 342 -13 0
-23 346 13 0
23 -346 13 0
23 -342 -13 0
24 349 -25 0
-24 -349 0
-24 25 0
-25 341 -13 0
-25 345 13 0
25 -345 13 0
25 -341 -13 0
26 27 -28 29 0
-26 -27 0
-26 28 0
-26 -29 0
-27 350 23 0
-27 -350 -23 0
27 -350 23 0
27 350 -23 0
28 348 -21 0
-28 -348 0
-28 21 0
-29 349 25 0
-29 -349 -25 0
29 -349 25 0
29 349 -25 0
30 347 27 29 -12 0
-30 -347 0
-30 12 0
-30 -29 0
-30 -27 0
-31 33 41 0
-31 -352 32 33 0
-31 352 -32 33 0
31 -33 0
31 352 32 -41 0
31 -352 -32 -41 0
-32 21 -20 0
-32 348 20 0
32 -348 20 0
32 -21 -20 0
-33 -354 34 37 0
-33 -354 35 37 0
-33 34 35 37 0
33 -34 -35 0
33 354 -34 0
33 -37 0
33 354 -35 0
-34 23 -20 0
-34 350 20 0
34 -350 20 0
34 -23 -20 0
35 353 -36 0
-35 -353 0
-35 36 0
-36 25 -20 0
-36 349 20 0
36 -349 20 0
36 -25 -20 0
37 38 -39 40 0
-37 -38 0
-37 39 0
-37 -40 0
-38 354 34 0
-38 -354 -34 0
38 -354 34 0
38 354 -34 0
39 352 -32 0
-39 -352 0
-39 32 0
-40 353 36 0
-40 -353 -36 0
40 -353 36 0
40 353 -36 0
41 351 38 40 -11 0
-41 -351 0
-41 11 0
-41 -40 0
-41 -38 0
-42 44 52 0
-42 -356 43 44 0
-42 356 -43 44 0
42 -44 0
42 356 43 -52 0
42 -356 -43 -52 0
-43 32 -31 0
-43 352 31 0
43 -352 31 0
43 -32 -31 0
-44 -358 45 48 0
-44 -358 46 48 0
-44 45 46 48 0
44 -45 -46 0
44 358 -45 0
44 -48 0
44 358 -46 0
-45 34 -31 0
-45 354 31 0
45 -354 31 0
45 -34 -31 0
46 357 -47 0
-46 -357 0
-46 47 0
-47 36 -31 0
-47 353 31 0
47 -353 31 0
47 -36 -31 0
48 49 -50 51 0
-48 -49 0
-48 50 0
-48 -51 0
-49 358 45 0
-49 -358 -45 0
49 -358 45 0
49 358 -45 0
50 356 -43 0
-50 -356 0
-50 43 0
-51 357 47 0
-51 -357 -47 0
51 -357 47 0
51 357 -47 0
52 355 49 51 -10 0
-52 -355 0
-52 10 0
-52 -51 0
-52 -49 0
-53 55 63 0
-53 -360 54 55 0
-53 360 -54 55 0
53 -55 0
53 360 54 -63 0
53 -360 -54 -63 0
-54 43 -42 0
-54 356 42 0
54 -356 42 0
54 -43 -42 0
-55 -362 56 59 0
-55 -362 57 59 0
-55 56 57 59 0
55 -56 -57 0
55 362 -56 0
55 -59 0
55 362 -57 0
-56 45 -42 0
-56 358 42 0
56 -358 42 0
56 -45 -42 0
57 361 -58 0
-57 -361 0
-57 58 0
-58 47 -42 0
-58 357 42 0
58 -357 42 0
58 -47 -42 0
59 60 -61 62 0
-59 -60 0
-59 61 0
-59 -62 0
-60 362 56 0
-60 -362 -56 0
60 -362 56 0
60 362 -56 0
61 360 -54 0
-61 -360 0
-61 54 0
-62 361 58 0
-62 -361 -58 0
62 -361 58 0
62 361 -58 0
63 359 60 62 -9 0
-63 -359 0
-63 9 0
-63 -62 0
-63 -60 0
-64 66 74 0
-64 -364 65 66 0
-64 364 -65 66 0
64 -66 0
64 364 65 -74 0
64 -364 -65 -74 0
-65 54 -53 0
-65 360 53 0
65 -360 53 0
65 -54 -53 0
-66 -366 67 70 0
-66 -366 68 70 0
-66 67 68 70 0
66 -67 -68 0
66 366 -67 0
66 -70 0
66 366 -68 0
-67 56 -53 0
-67 362 53 0
67 -362 53 0
67 -56 -53 0
68 365 -69 0
-68 -365 0
-68 69 0
-69 58 -53 0
-69 361 53 0
69 -361 53 0
69 -58 -53 0
70 71 -72 73 0
-70 -71 0
-70 72 0
-70 -73 0
-71 366 67 0
-71 -366 -67 0
71 -366 67 0
71 366 -67 0
72 364 -65 0
-72 -364 0
-72 65 0
-73 365 69 0
-73 -365 -69 0
73 -365 69 0
73 365 -69 0
74 363 71 73 -8 0
-74 -363 0
-74 8 0
-74 -73 0
-74 -71 0
-75 77 -126 0
-75 76 126 0
75 -77 -126 0
75 -76 126 0
-76 9 53 0
-76 359 -53 0
76 -359 -53 0
76 -9 53 0
-77 79 -112 0
-77 78 112 0
77 -79 -112 0
77 -78 112 0
-78 10 42 0
-78 355 -42 0
78 -355 -42 0
78 -10 42 0
-79 81 -98 0
-79 80 98 0
79 -81 -98 0
79 -80 98 0
-80 11 31 0
-80 351 -31 0
80 -351 -31 0
80 -11 31 0
-81 83 84 0
-81 82 -84 0
81 -82 -84 0
81 -83 84 0
-82 343 -13 0
-82 339 13 0
82 -343 -13 0
82 -339 13 0
-83 12 20 0
-83 347 -20 0
83 -347 -20 0
83 -12 20 0
-84 87 97 0
-84 -85 86 87 0
-84 85 -86 87 0
84 -87 0
84 85 86 -97 0
84 -85 -86 -97 0
-85 344 -13 0
-85 340 13 0
85 -344 -13 0
85 -340 13 0
-86 21 20 0
-86 348 -20 0
86 -348 -20 0
86 -21 20 0
-87 88 -89 93 0
-87 88 90 93 0
-87 -89 90 93 0
87 -88 89 0
87 89 -90 0
87 -93 0
87 -88 -90 0
-88 346 -13 0
-88 342 13 0
88 -346 -13 0
88 -342 13 0
-89 23 20 0
-89 350 -20 0
89 -350 -20 0
89 -23 20 0
90 -91 92 0
-90 91 0
-90 -92 0
-91 345 -13 0
-91 341 13 0
91 -345 -13 0
91 -341 13 0
-92 25 20 0
-92 349 -20 0
92 -349 -20 0
92 -25 20 0
93 94 -95 96 0
-93 -94 0
-93 95 0
-93 -96 0
-94 88 89 0
-94 -88 -89 0
94 -88 89 0
94 88 -89 0
95 -85 86 0
-95 85 0
-95 -86 0
-96 91 92 0
-96 -91 -92 0
96 -91 92 0
96 91 -92 0
97 94 96 -82 83 0
-97 -83 0
-97 -94 0
-97 -96 0
-97 82 0
-98 101 111 0
-98 -99 100 101 0
-98 99 -100 101 0
98 -101 0
98 99 100 -111 0
98 -99 -100 -111 0
-99 32 31 0
-99 352 -31 0
99 -352 -31 0
99 -32 31 0
-100 86 84 0
-100 85 -84 0
100 -85 -84 0
100 -86 84 0
-101 102 -103 107 0
-101 102 104 107 0
-101 -103 104 107 0
101 -102 103 0
101 103 -104 0
101 -107 0
101 -102 -104 0
-102 89 84 0
-102 88 -84 0
102 -88 -84 0
102 -89 84 0
-103 34 31 0
-103 354 -31 0
103 -354 -31 0
103 -34 31 0
104 105 -106 0
-104 -105 0
-104 106 0
-105 36 31 0
-105 353 -31 0
105 -353 -31 0
105 -36 31 0
-106 92 84 0
-106 91 -84 0
106 -91 -84 0
106 -92 84 0
107 108 -109 110 0
-107 -108 0
-107 109 0
-107 -110 0
-108 102 103 0
-108 -102 -103 0
108 -102 103 0
108 102 -103 0
109 99 -100 0
-109 -99 0
-109 100 0
-110 105 106 0
-110 -105 -106 0
110 -105 106 0
110 105 -106 0
111 108 110 80 -81 0
-111 -80 0
-111 81 0
-111 -108 0
-111 -110 0
-112 115 125 0
-112 -113 114 115 0
-112 113 -114 115 0
112 -115 0
112 113 114 -125 0
112 -113 -114 -125 0
-113 43 42 0
-113 356 -42 0
113 -356 -42 0
113 -43 42 0
-114 100 -98 0
-114 99 98 0
114 -100 -98 0
114 -99 98 0
-115 116 -117 121 0
-115 116 118 121 0
-115 -117 118 121 0
115 -116 117 0
115 117 -118 0
115 -121 0
115 -116 -118 0
-116 103 98 0
-116 102 -98 0
116 -102 -98 0
116 -103 98 0
-117 45 42 0
-117 358 -42 0
117 -358 -42 0
117 -45 42 0
118 119 -120 0
-118 -119 0
-118 120 0
-119 47 42 0
-119 357 -42 0
119 -357 -42 0
119 -47 42 0
-120 106 -98 0
-120 105 98 0
120 -106 -98 0
120 -105 98 0
121 122 -123 124 0
-121 -122 0
-121 123 0
-121 -124 0
-122 116 117 0
-122 -116 -117 0
122 -116 117 0
122 116 -117 0
123 113 -114 0
-123 -113 0
-123 114 0
-124 119 120 0
-124 -119 -120 0
124 -119 120 0
124 119 -120 0
125 122 124 78 -79 0
-125 -78 0
-125 79 0
-125 -122 0
-125 -124 0
-126 129 139 0
-126 -127 128 129 0
-126 127 -128 129 0
126 -129 0
126 127 128 -139 0
126 -127 -128 -139 0
-127 54 53 0
-127 360 -53 0
127 -360 -53 0
127 -54 53 0
-128 114 -112 0
-128 113 112 0
128 -114 -112 0
128 -113 112 0
-129 130 -131 135 0
-129 130 132 135 0
-129 -131 132 135 0
129 -130 131 0
129 131 -132 0
129 -135 0
129 -130 -132 0
-130 117 112 0
-130 116 -112 0
130 -116 -112 0
130 -117 112 0
-131 56 53 0
-131 362 -53 0
131 -362 -53 0
131 -56 53 0
132 133 -134 0
-132 -133 0
-132 134 0
-133 58 53 0
-133 361 -53 0
133 -361 -53 0
133 -58 53 0
-134 120 -112 0
-134 119 112 0
134 -120 -112 0
134 -119 112 0
135 136 -137 138 0
-135 -136 0
-135 137 0
-135 -138 0
-136 130 131 0
-136 -130 -131 0
136 -130 131 0
136 130 -131 0
137 127 -128 0
-137 -127 0
-137 128 0
-138 133 134 0
-138 -133 -134 0
138 -133 134 0
138 133 -134 0
139 136 138 76 -77 0
-139 -76 0
-139 77 0
-139 -136 0
-139 -138 0
-140 143 153 0
-140 -141 142 143 0
-140 141 -142 143 0
140 -143 0
140 141 142 -153 0
140 -141 -142 -153 0
-141 65 64 0
-141 364 -64 0
141 -364 -64 0
141 -65 64 0
-142 128 -126 0
-142 127 126 0
142 -128 -126 0
142 -127 126 0
-143 -144 145 149 0
-143 -144 146 149 0
-143 145 146 149 0
143 144 -146 0
143 144 -145 0
143 -149 0
143 -145 -146 0
-144 67 64 0
-144 366 -64 0
144 -366 -64 0
144 -67 64 0
-145 131 126 0
-145 130 -126 0
145 -130 -126 0
145 -131 126 0
146 147 -148 0
-146 -147 0
-146 148 0
-147 69 64 0
-147 365 -64 0
147 -365 -64 0
147 -69 64 0
-148 134 -126 0
-148 133 126 0
148 -134 -126 0
148 -133 126 0
149 150 -151 152 0
-149 -150 0
-149 151 0
-149 -152 0
-150 144 145 0
-150 -144 -145 0
150 -144 145 0
150 144 -145 0
151 141 -142 0
-151 -141 0
-151 142 0
-152 147 148 0
-152 -147 -148 0
152 -147 148 0
152 147 -148 0
153 7 150 152 -75 0
-153 -152 0
-153 75 0
-153 -7 0
-153 -150 0
-154 156 -189 0
-154 155 189 0
154 -156 -189 0
154 -155 189 0
-155 77 126 0
-155 76 -126 0
155 -76 -126 0
155 -77 126 0
-156 158 -175 0
-156 157 175 0
156 -158 -175 0
156 -157 175 0
-157 79 112 0
-157 78 -112 0
157 -78 -112 0
157 -79 112 0
-158 160 161 0
-158 159 -161 0
158 -159 -161 0
158 -160 161 0
-159 83 -84 0
-159 82 84 0
159 -83 -84 0
159 -82 84 0
-160 81 98 0
-160 80 -98 0
160 -80 -98 0
160 -81 98 0
-161 164 174 0
-161 -162 163 164 0
-161 162 -163 164 0
161 -164 0
161 162 163 -174 0
161 -162 -163 -174 0
-162 86 -84 0
-162 85 84 0
162 -86 -84 0
162 -85 84 0
-163 100 98 0
-163 99 -98 0
163 -99 -98 0
163 -100 98 0
-164 165 -166 170 0
-164 165 167 170 0
-164 -166 167 170 0
164 -165 166 0
164 166 -167 0
164 -170 0
164 -165 -167 0
-165 89 -84 0
-165 88 84 0
165 -89 -84 0
165 -88 84 0
-166 103 -98 0
-166 102 98 0
166 -103 -98 0
166 -102 98 0
167 -168 169 0
-167 168 0
-167 -169 0
-168 92 -84 0
-168 91 84 0
168 -92 -84 0
168 -91 84 0
-169 106 98 0
-169 105 -98 0
169 -105 -98 0
169 -106 98 0
170 171 -172 173 0
-170 -171 0
-170 172 0
-170 -173 0
-171 165 166 0
-171 -165 -166 0
171 -165 166 0
171 165 -166 0
172 -162 163 0
-172 162 0
-172 -163 0
-173 168 169 0
-173 -168 -169 0
173 -168 169 0
173 168 -169 0
174 171 173 -159 160 0
-174 -160 0
-174 -171 0
-174 -173 0
-174 159 0
-175 178 188 0
-175 -176 177 178 0
-175 176 -177 178 0
175 -178 0
175 176 177 -188 0
175 -176 -177 -188 0
-176 114 112 0
-176 113 -112 0
176 -113 -112 0
176 -114 112 0
-177 163 161 0
-177 162 -161 0
177 -162 -161 0
177 -163 161 0
-178 179 -180 184 0
-178 179 181 184 0
-178 -180 181 184 0
178 -179 180 0
178 180 -181 0
178 -184 0
178 -179 -181 0
-179 166 161 0
-179 165 -161 0
179 -165 -161 0
179 -166 161 0
-180 117 -112 0
-180 116 112 0
180 -117 -112 0
180 -116 112 0
181 182 -183 0
-181 -182 0
-181 183 0
-182 120 112 0
-182 119 -112 0
182 -119 -112 0
182 -120 112 0
-183 169 161 0
-183 168 -161 0
183 -168 -161 0
183 -169 161 0
184 185 -186 187 0
-184 -185 0
-184 186 0
-184 -187 0
-185 179 180 0
-185 -179 -180 0
185 -179 180 0
185 179 -180 0
186 176 -177 0
-186 -176 0
-186 177 0
-187 182 183 0
-187 -182 -183 0
187 -182 183 0
187 182 -183 0
188 185 187 157 -158 0
-188 -157 0
-188 158 0
-188 -185 0
-188 -187 0
-189 192 202 0
-189 -190 191 192 0
-189 190 -191 192 0
189 -192 0
189 190 191 -202 0
189 -190 -191 -202 0
-190 128 126 0
-190 127 -126 0
190 -127 -126 0
190 -128 126 0
-191 177 -175 0
-191 176 175 0
191 -177 -175 0
191 -176 175 0
-192 193 -194 198 0
-192 193 195 198 0
-192 -194 195 198 0
192 -193 194 0
192 194 -195 0
192 -198 0
192 -193 -195 0
-193 180 175 0
-193 179 -175 0
193 -179 -175 0
193 -180 175 0
-194 131 -126 0
-194 130 126 0
194 -131 -126 0
194 -130 126 0
195 196 -197 0
-195 -196 0
-195 197 0
-196 134 126 0
-196 133 -126 0
196 -133 -126 0
196 -134 126 0
-197 183 -175 0
-197 182 175 0
197 -183 -175 0
197 -182 175 0
198 199 -200 201 0
-198 -199 0
-198 200 0
-198 -201 0
-199 193 194 0
-199 -193 -194 0
199 -193 194 0
199 193 -194 0
200 190 -191 0
-200 -190 0
-200 191 0
-201 196 197 0
-201 -196 -197 0
201 -196 197 0
201 196 -197 0
202 199 201 155 -156 0
-202 -155 0
-202 156 0
-202 -199 0
-202 -201 0
-203 206 216 0
-203 -204 205 206 0
-203 204 -205 206 0
203 -206 0
203 204 205 -216 0
203 -204 -205 -216 0
-204 142 140 0
-204 141 -140 0
204 -141 -140 0
204 -142 140 0
-205 191 -189 0
-205 190 189 0
205 -191 -189 0
205 -190 189 0
-206 -207 208 212 0
-206 -207 209 212 0
-206 208 209 212 0
206 207 -209 0
206 207 -208 0
206 -212 0
206 -208 -209 0
-207 145 140 0
-207 144 -140 0
207 -144 -140 0
207 -145 140 0
-208 194 189 0
-208 193 -189 0
208 -193 -189 0
208 -194 189 0
209 210 -211 0
-209 -210 0
-209 211 0
-210 148 140 0
-210 147 -140 0
210 -147 -140 0
210 -148 140 0
-211 197 -189 0
-211 196 189 0
211 -197 -189 0
211 -196 189 0
212 213 -214 215 0
-212 -213 0
-212 214 0
-212 -215 0
-213 207 208 0
-213 -207 -208 0
213 -207 208 0
213 207 -208 0
214 204 -205 0
-214 -204 0
-214 205 0
-215 210 211 0
-215 -210 -211 0
215 -210 211 0
215 210 -211 0
216 6 213 215 -154 0
-216 -215 0
-216 154 0
-216 -6 0
-216 -213 0
-217 219 -236 0
-217 218 236 0
217 -219 -236 0
217 -218 236 0
-218 156 189 0
-218 155 -189 0
218 -155 -189 0
218 -156 189 0
-219 221 222 0
-219 220 -222 0
219 -220 -222 0
219 -221 222 0
-220 160 -161 0
-220 159 161 0
220 -160 -161 0
220 -159 161 0
-221 158 175 0
-221 157 -175 0
221 -157 -175 0
221 -158 175 0
-222 225 235 0
-222 -223 224 225 0
-222 223 -224 225 0
222 -225 0
222 223 224 -235 0
222 -223 -224 -235 0
-223 163 -161 0
-223 162 161 0
223 -163 -161 0
223 -162 161 0
-224 177 175 0
-224 176 -175 0
224 -176 -175 0
224 -177 175 0
-225 226 -227 231 0
-225 226 228 231 0
-225 -227 228 231 0
225 -226 227 0
225 227 -228 0
225 -231 0
225 -226 -228 0
-226 166 -161 0
-226 165 161 0
226 -166 -161 0
226 -165 161 0
-227 180 -175 0
-227 179 175 0
227 -180 -175 0
227 -179 175 0
228 -229 230 0
-228 229 0
-228 -230 0
-229 169 -161 0
-229 168 161 0
229 -169 -161 0
229 -168 161 0
-230 183 175 0
-230 182 -175 0
230 -182 -175 0
230 -183 175 0
231 232 -233 234 0
-231 -232 0
-231 233 0
-231 -234 0
-232 226 227 0
-232 -226 -227 0
232 -226 227 0
232 226 -227 0
233 -223 224 0
-233 223 0
-233 -224 0
-234 229 230 0
-234 -229 -230 0
234 -229 230 0
234 229 -230 0
235 232 234 -220 221 0
-235 -221 0
-235 -232 0
-235 -234 0
-235 220 0
-236 239 249 0
-236 -237 238 239 0
-236 237 -238 239 0
236 -239 0
236 237 238 -249 0
236 -237 -238 -249 0
-237 191 189 0
-237 190 -189 0
237 -190 -189 0
237 -191 189 0
-238 224 222 0
-238 223 -222 0
238 -223 -222 0
238 -224 222 0
-239 240 -241 245 0
-239 240 242 245 0
-239 -241 242 245 0
239 -240 241 0
239 241 -242 0
239 -245 0
239 -240 -242 0
-240 227 222 0
-240 226 -222 0
240 -226 -222 0
240 -227 222 0
-241 194 -189 0
-241 193 189 0
241 -194 -189 0
241 -193 189 0
242 243 -244 0
-242 -243 0
-242 244 0
-243 197 189 0
-243 196 -189 0
243 -196 -189 0
243 -197 189 0
-244 230 222 0
-244 229 -222 0
244 -229 -222 0
244 -230 222 0
245 246 -247 248 0
-245 -246 0
-245 247 0
-245 -248 0
-246 240 241 0
-246 -240 -241 0
246 -240 241 0
246 240 -241 0
247 237 -238 0
-247 -237 0
-247 238 0
-248 243 244 0
-248 -243 -244 0
248 -243 244 0
248 243 -244 0
249 246 248 218 -219 0
-249 -218 0
-249 219 0
-249 -246 0
-249 -248 0
-250 253 264 0
-250 -251 252 253 0
-250 251 -252 253 0
250 -253 0
250 251 252 -264 0
250 -251 -252 -264 0
-251 205 203 0
-251 204 -203 0
251 -204 -203 0
251 -205 203 0
-252 238 -236 0
-252 237 236 0
252 -238 -236 0
252 -237 236 0
-253 -254 257 0
-253 257 262 0
-253 257 -263 0
253 -257 0
253 254 -262 263 0
-254 255 256 0
-254 -255 -256 0
254 -255 256 0
254 255 -256 0
-255 208 203 0
-255 207 -203 0
255 -207 -203 0
255 -208 203 0
-256 241 236 0
-256 240 -236 0
256 -240 -236 0
256 -241 236 0
-257 258 -254 0
-257 258 259 0
257 -258 0
257 -259 254 0
258 255 -256 0
-258 -255 0
-258 256 0
259 260 -261 0
-259 -260 0
-259 261 0
-260 211 203 0
-260 210 -203 0
260 -210 -203 0
260 -211 203 0
-261 244 -236 0
-261 243 236 0
261 -244 -236 0
261 -243 236 0
262 251 -252 0
-262 -251 0
-262 252 0
-263 260 261 0
-263 -260 -261 0
263 -260 261 0
263 260 -261 0
264 5 254 263 -217 0
-264 -263 0
-264 217 0
-264 -5 0
-264 -254 0
-265 267 268 0
-265 266 -268 0
265 -266 -268 0
265 -267 268 0
-266 221 -222 0
-266 220 222 0
266 -221 -222 0
266 -220 222 0
-267 219 236 0
-267 218 -236 0
267 -218 -236 0
267 -219 236 0
-268 271 282 0
-268 -269 270 271 0
-268 269 -270 271 0
268 -271 0
268 269 270 -282 0
268 -269 -270 -282 0
-269 224 -222 0
-269 223 222 0
269 -224 -222 0
269 -223 222 0
-270 238 236 0
-270 237 -236 0
270 -237 -236 0
270 -238 236 0
-271 -272 275 0
-271 275 280 0
-271 275 -281 0
271 -275 0
271 272 -280 281 0
-272 273 274 0
-272 -273 -274 0
272 -273 274 0
272 273 -274 0
-273 227 -222 0
-273 226 222 0
273 -227 -222 0
273 -226 222 0
-274 241 -236 0
-274 240 236 0
274 -241 -236 0
274 -240 236 0
-275 276 -272 0
-275 276 277 0
275 -276 0
275 -277 272 0
276 -273 274 0
-276 273 0
-276 -274 0
277 -278 279 0
-277 278 0
-277 -279 0
-278 230 -222 0
-278 229 222 0
278 -230 -222 0
278 -229 222 0
-279 244 236 0
-279 243 -236 0
279 -243 -236 0
279 -244 236 0
280 -269 270 0
-280 269 0
-280 -270 0
-281 278 279 0
-281 -278 -279 0
281 -278 279 0
281 278 -279 0
282 272 281 -266 267 0
-282 -267 0
-282 -272 0
-282 -281 0
-282 266 0
-283 286 296 0
-283 -284 285 286 0
-283 284 -285 286 0
283 -286 0
283 284 285 -296 0
283 -284 -285 -296 0
-284 252 250 0
-284 251 -250 0
284 -251 -250 0
284 -252 250 0
-285 270 268 0
-285 269 -268 0
285 -269 -268 0
285 -270 268 0
-286 -287 288 292 0
-286 -287 289 292 0
-286 288 289 292 0
286 287 -289 0
286 287 -288 0
286 -292 0
286 -288 -289 0
-287 256 250 0
-287 255 -250 0
287 -255 -250 0
287 -256 250 0
-288 274 268 0
-288 273 -268 0
288 -273 -268 0
288 -274 268 0
289 290 -291 0
-289 -290 0
-289 291 0
-290 261 250 0
-290 260 -250 0
290 -260 -250 0
290 -261 250 0
-291 279 268 0
-291 278 -268 0
291 -278 -268 0
291 -279 268 0
292 293 -294 295 0
-292 -293 0
-292 294 0
-292 -295 0
-293 287 288 0
-293 -287 -288 0
293 -287 288 0
293 287 -288 0
294 284 -285 0
-294 -284 0
-294 285 0
-295 290 291 0
-295 -290 -291 0
295 -290 291 0
295 290 -291 0
296 4 293 295 -265 0
-296 -295 0
-296 265 0
-296 -4 0
-296 -293 0
-297 267 -268 0
-297 266 268 0
297 -267 -268 0
297 -266 268 0
-298 301 311 0
-298 -299 300 301 0
-298 299 -300 301 0
298 -301 0
298 299 300 -311 0
298 -299 -300 -311 0
-299 270 -268 0
-299 269 268 0
299 -270 -268 0
299 -269 268 0
-300 285 283 0
-300 284 -283 0
300 -284 -283 0
300 -285 283 0
-301 302 -303 307 0
-301 302 304 307 0
-301 -303 304 307 0
301 -302 303 0
301 303 -304 0
301 -307 0
301 -302 -304 0
-302 274 -268 0
-302 273 268 0
302 -274 -268 0
302 -273 268 0
-303 288 283 0
-303 287 -283 0
303 -287 -283 0
303 -288 283 0
304 -305 306 0
-304 305 0
-304 -306 0
-305 279 -268 0
-305 278 268 0
305 -279 -268 0
305 -278 268 0
-306 291 283 0
-306 290 -283 0
306 -290 -283 0
306 -291 283 0
307 308 -309 310 0
-307 -308 0
-307 309 0
-307 -310 0
-308 302 303 0
-308 -302 -303 0
308 -302 303 0
308 302 -303 0
309 -299 300 0
-309 299 0
-309 -300 0
-310 305 306 0
-310 -305 -306 0
310 -305 306 0
310 305 -306 0
311 3 308 310 -297 0
-311 -310 0
-311 297 0
-311 -3 0
-311 -308 0
-312 300 -298 0
-312 299 298 0
312 -300 -298 0
312 -299 298 0
-313 306 -298 0
-313 305 298 0
313 -306 -298 0
313 -305 298 0
-314 303 -298 0
-314 302 298 0
314 -303 -298 0
314 -302 298 0
-315 297 -298 0
-315 3 298 0
315 -297 -298 0
315 -3 298 0
-316 300 298 0
-316 299 -298 0
316 -299 -298 0
316 -300 298 0
-317 306 298 0
-317 305 -298 0
317 -305 -298 0
317 -306 298 0
-318 303 298 0
-318 302 -298 0
318 -302 -298 0
318 -303 298 0
-319 265 -283 0
-319 4 283 0
319 -265 -283 0
319 -4 283 0
-320 285 -283 0
-320 284 283 0
320 -285 -283 0
320 -284 283 0
-321 291 -283 0
-321 290 283 0
321 -291 -283 0
321 -290 283 0
-322 288 -283 0
-322 287 283 0
322 -288 -283 0
322 -287 283 0
-323 217 -250 0
-323 5 250 0
323 -217 -250 0
323 -5 250 0
-324 252 -250 0
-324 251 250 0
324 -252 -250 0
324 -251 250 0
-325 261 -250 0
-325 260 250 0
325 -261 -250 0
325 -260 250 0
-326 256 -250 0
-326 255 250 0
326 -256 -250 0
326 -255 250 0
-327 154 -203 0
-327 6 203 0
327 -154 -203 0
327 -6 203 0
-328 205 -203 0
-328 204 203 0
328 -205 -203 0
328 -204 203 0
-329 211 -203 0
-329 210 203 0
329 -211 -203 0
329 -210 203 0
-330 208 -203 0
-330 207 203 0
330 -208 -203 0
330 -207 203 0
-331 75 -140 0
-331 7 140 0
331 -75 -140 0
331 -7 140 0
-332 142 -140 0
-332 141 140 0
332 -142 -140 0
332 -141 140 0
-333 148 -140 0
-333 147 140 0
333 -148 -140 0
333 -147 140 0
-334 145 -140 0
-334 144 140 0
334 -145 -140 0
334 -144 140 0
-335 8 -64 0
-335 363 64 0
335 -363 64 0
335 -8 -64 0
-336 65 -64 0
-336 364 64 0
336 -364 64 0
336 -65 -64 0
-337 69 -64 0
-337 365 64 0
337 -365 64 0
337 -69 -64 0
-338 67 -64 0
-338 366 64 0
338 -366 64 0
338 -67 -64 0
-367 0
2 0
312 0
313 0
314 0
315 0
316 0
317 0
318 0
319 0
320 0
321 0
322 0
323 0
324 0
325 0
326 0
327 0
328 0
329 0
330 0
331 0
332 0
333 0
334 0
335 0
336 0
337 0
338 0